NAME : HealthcareRouting
TYPE : CVRP
DIMENSION : 16
EDGE_WEIGHT_TYPE : EUC_2D
CAPACITY : 10000
NODE_COORD_SECTION
1 1210 1933
2 1248 2241
3 598 2354
4 250 3220
5 483 2592
6 457 320
7 1369 3317
8 1336 650
9 1777 2471
10 1567 1405
11 1518 455
12 2641 411
13 1796 3243
14 2436 1431
15 367 1268
16 1060 1522
DEMAND_SECTION
1 0
2 321
3 321
4 321
5 320
6 320
7 321
8 320
9 321
10 320
11 321
12 320
13 321
14 321
15 321
16 321
DEPOT_SECTION
1
-1
EOF